10J3M/DAT/10J3MNLA-11.dat
10 3
32.1476 1033.4682
32.8439 1078.7218
29.9741 898.4467
27.1071 734.7949
31.9096 1018.2226
12.2767 150.7174
21.7488 473.0103
16.4664 271.1423
28.1577 792.8561
31.9655 1021.7932
2491.0578