10J3M/SOL/10J3MNLA-11.sol
solution status: optimal solution found
objective value:                     84.7404666666666
x#1#1                                               1 	(obj:0)
x#2#1                                               1 	(obj:0)
x#3#2                                               1 	(obj:0)
x#4#1                                               1 	(obj:0)
x#5#3                                               1 	(obj:0)
x#6#2                               0.364182331464513 	(obj:0)
x#6#3                               0.635817668535487 	(obj:0)
x#7#2                                               1 	(obj:0)
x#8#1                               0.190027424220196 	(obj:0)
x#8#2                               0.809972575779804 	(obj:0)
x#9#3                                               1 	(obj:0)
x#10#1                              0.107070324211999 	(obj:0)
x#10#2                              0.194416223468847 	(obj:0)
x#10#3                              0.698513452319154 	(obj:0)
z                                    84.7404666666666 	(obj:1)
